50
13629

865 3293
395 2386
777 3164
912 3356
431 2480
42 815
266 1993
989 3451
524 2699
498 2641
415 2439
941 3393
803 3204
850 3272
311 2142
992 3454
489 2620
367 2309
598 2852
914 3358
930 3379
224 1839
517 2683
143 1485
289 2071
144 1490
774 3160
98 1236
634 2921
819 3228
257 1961
932 3381
546 2746
723 3078
830 3244
617 2889
924 3371
151 1524
318 2164
102 1261
748 3119
76 1092
921 3367
871 3301
701 3041
339 2228
484 2609
574 2804
104 1273
363 2298
